language ESSENCE' 1.0
$ minion Nodes: 240
$ minion TotalTime: 0.028653
$ Savile Row TotalTime: 2.818
letting x_SetExplicitVarSize_tuple2_tuple3_SetOccurrence be [[false, false, false, true;int(6..9)], 
[false, false, false, true;int(6..9)], 
[false, false, false, true;int(6..9)], 
[false, false, false, true;int(6..9)], 
[false, false, false, true;int(6..9)], 
[false, false, false, true;int(6..9)], 
[false, false, false, true;int(6..9)], 
[false, false, false, true;int(6..9)], 
[false, false, false, true;int(6..9)], 
[false, false, false, true;int(6..9)], 
[false, false, false, true;int(6..9)], 
[false, false, false, true;int(6..9)], 
[false, false, false, true;int(6..9)], 
[false, false, false, true;int(6..9)], 
[false, false, false, true;int(6..9)], 
[false, false, false, true;int(6..9)], 
[false, false, false, true;int(6..9)], 
[false, false, false, true;int(6..9)], 
[false, false, false, true;int(6..9)], 
[false, false, false, true;int(6..9)], 
[false, false, false, true;int(6..9)], 
[false, false, false, true;int(6..9)], 
[false, false, false, true;int(6..9)], 
[false, false, false, true;int(6..9)], 
[false, false, false, true;int(6..9)], 
[false, false, false, true;int(6..9)], 
[false, false, false, true;int(6..9)], 
[false, false, false, true;int(6..9)], 
[false, false, false, true;int(6..9)], 
[false, false, false, true;int(6..9)], 
[false, false, false, true;int(6..9)], 
[false, false, false, true;int(6..9)], 
[false, false, false, true;int(6..9)], 
[false, false, false, true;int(6..9)], 
[false, false, false, true;int(6..9)], 
[false, false, false, true;int(6..9)], 
[false, false, false, true;int(6..9)], 
[false, false, false, true;int(6..9)], 
[false, false, false, true;int(6..9)], 
[false, false, false, true;int(6..9)], 
[false, false, false, true;int(6..9)], 
[false, false, false, true;int(6..9)], 
[false, false, false, true;int(6..9)], 
[false, false, false, true;int(6..9)], 
[false, false, false, true;int(6..9)], 
[false, false, false, true;int(6..9)], 
[false, false, false, true;int(6..9)], 
[false, false, true, false;int(6..9)];int(1..48)]
letting x_SetExplicitVarSize_tuple2_tuple2 be [4, 4, 4, 4, 4, 4, 4, 4, 4, 4, 4, 4, 4, 4, 4, 4, 4, 4, 4, 4, 4, 4, 4, 4, 4, 4, 4, 4, 4, 4, 4, 4, 4, 4, 4, 4, 4, 4, 4, 4, 4, 4, 4, 4, 4, 4, 4, 4;int(1..48)]
letting x_SetExplicitVarSize_tuple1 be [false, false, false, false, false, false, false, false, false, false, false, false, false, false, false, false, false, false, false, false, false, false, false, false, false, false, false, false, false, false, false, false, false, false, false, false, false, false, false, false, false, false, false, false, false, false, true, true;int(1..48)]
letting x_SetExplicitVarSize_tuple2_tuple1_SetOccurrence be [[false, true, true;int(2..4)], 
[false, true, true;int(2..4)], 
[false, true, true;int(2..4)], 
[false, true, true;int(2..4)], 
[false, true, true;int(2..4)], 
[false, true, true;int(2..4)], 
[false, true, true;int(2..4)], 
[false, true, true;int(2..4)], 
[false, true, true;int(2..4)], 
[false, true, true;int(2..4)], 
[false, true, true;int(2..4)], 
[false, true, true;int(2..4)], 
[false, true, true;int(2..4)], 
[false, true, true;int(2..4)], 
[false, true, true;int(2..4)], 
[false, true, true;int(2..4)], 
[false, true, true;int(2..4)], 
[false, true, true;int(2..4)], 
[false, true, true;int(2..4)], 
[false, true, true;int(2..4)], 
[false, true, true;int(2..4)], 
[false, true, true;int(2..4)], 
[false, true, true;int(2..4)], 
[false, true, true;int(2..4)], 
[false, true, true;int(2..4)], 
[false, true, true;int(2..4)], 
[false, true, true;int(2..4)], 
[false, true, true;int(2..4)], 
[false, true, true;int(2..4)], 
[false, true, true;int(2..4)], 
[false, true, true;int(2..4)], 
[false, true, true;int(2..4)], 
[false, true, true;int(2..4)], 
[false, true, true;int(2..4)], 
[false, true, true;int(2..4)], 
[false, true, true;int(2..4)], 
[false, true, true;int(2..4)], 
[false, true, true;int(2..4)], 
[false, true, true;int(2..4)], 
[false, true, true;int(2..4)], 
[false, true, true;int(2..4)], 
[false, true, true;int(2..4)], 
[false, true, true;int(2..4)], 
[false, true, true;int(2..4)], 
[false, true, true;int(2..4)], 
[false, true, true;int(2..4)], 
[false, true, true;int(2..4)], 
[false, true, true;int(2..4)];int(1..48)]
